WARNING: for repeatability, setting FPU to use double precision
============================[ Problem Statistics ]=============================
|                                                                             |
|  Number of variables:           100                                         |
|  Number of clauses:             449                                         |
|  Parse time:                   0.00 s                                       |
|  Eliminated clauses:           0.00 Mb                                      |
|  Simplification time:          0.00 s                                       |
|                                                                             |
============================[ Search Statistics ]==============================
| Conflicts |          ORIGINAL         |          LEARNT          | Progress |
|           |    Vars  Clauses Literals |    Limit  Clauses Lit/Cl |          |
===============================================================================
|       100 |      99      448     1349 |      164      100      6 |  0.011 % |
|       250 |      99      448     1349 |      180      166      6 |  0.010 % |
===============================================================================
restarts              : 3
conflicts             : 321            (83703 /sec)
decisions             : 397            (0.00 % random) (103520 /sec)
propagations          : 7865           (2050847 /sec)
conflict literals     : 1996           (19.68 % deleted)
Memory used           : 13.00 MB
CPU time              : 0.003835 s

SATISFIABLE
